Route #1: 33 63 1 43 42 64 41 56 23 24 49 16
Route #2: 3 44 32 50 18 55 25 9 39 31 10
Route #3: 72 58 38 11 65 66 59 14 53
Route #4: 19 54 13 57 15 37 20 70 60 71 36 69 21 47 5
Route #5: 67 7 35 8 46 34 52 27 29 45 4
Route #6: 75 68 2 30 48 74 28 61 22 62 73 6 51
Route #7: 17 40 12 26
Cost 731